p tw 180 349
1 128
1 129
1 154
2 32
2 69
2 70
3 70
3 71
3 147
3 148
4 84
4 85
4 108
5 118
5 119
5 168
5 169
6 154
6 155
6 171
6 172
7 61
7 62
7 99
7 100
7 141
7 142
8 66
8 67
8 103
8 104
8 119
8 120
8 159
9 60
9 61
9 98
9 99
10 13
10 78
10 79
11 63
11 64
11 100
11 101
11 143
11 144
12 71
12 72
12 106
12 107
12 149
12 150
12 161
13 62
13 63
13 140
13 141
13 162
13 163
14 160
14 161
14 180
15 46
15 47
15 87
15 88
16 48
16 49
16 88
16 89
16 110
16 111
17 44
17 72
17 73
17 107
17 151
17 152
18 56
18 57
18 95
18 96
18 137
18 138
19 68
19 69
19 105
19 106
19 146
19 147
20 55
20 56
20 94
20 95
20 136
20 137
21 59
21 60
21 97
21 98
21 139
21 140
21 160
22 108
22 109
22 123
22 124
23 131
23 132
23 156
23 157
23 177
23 178
24 82
24 83
24 122
24 123
25 80
25 81
25 164
25 165
26 53
26 54
26 92
26 93
26 113
26 114
27 67
27 68
27 104
27 105
27 121
27 122
28 77
28 78
28 138
28 139
29 45
29 46
29 86
29 87
29 127
29 128
30 75
30 76
30 164
31 85
31 124
31 125
32 179
32 180
33 65
33 66
33 101
33 102
33 116
33 117
33 166
33 167
33 170
33 171
34 64
34 65
34 102
34 103
34 117
34 118
34 158
34 159
35 109
35 125
35 126
36 52
36 53
36 91
36 92
36 133
36 134
37 51
37 52
37 90
37 91
37 130
37 131
38 57
38 58
38 96
38 97
38 115
38 116
39 144
39 145
39 163
40 129
40 130
40 162
41 169
41 175
41 176
42 50
42 51
42 89
42 90
42 112
42 113
42 173
42 174
43 54
43 55
43 93
43 94
43 135
43 136
43 157
44 73
44 74
44 107
44 152
44 153
45 46
45 86
46 47
47 48
48 49
49 50
50 51
51 52
52 53
53 54
54 55
55 56
56 57
57 58
58 59
59 60
60 61
61 62
62 63
63 64
64 65
65 66
66 67
67 68
68 69
69 70
70 71
71 72
72 73
73 74
74 153
75 76
75 110
76 77
77 78
78 79
79 80
80 81
81 82
82 83
83 84
84 85
86 87
87 88
88 89
89 90
90 91
91 92
92 93
93 94
94 95
95 96
96 97
97 98
98 99
99 100
100 101
101 102
102 103
103 104
104 105
105 106
106 107
108 109
110 111
111 112
112 113
113 114
114 115
115 116
116 117
117 118
118 119
119 120
120 121
121 122
122 123
123 124
124 125
125 126
126 127
127 128
128 129
129 130
130 131
131 132
132 133
133 134
134 135
135 136
136 137
137 138
138 139
139 140
140 141
141 142
142 143
143 144
144 145
145 146
146 147
147 148
148 149
149 150
150 151
151 152
152 153
154 155
155 156
156 157
158 159
158 170
160 161
162 163
164 165
165 166
166 167
167 168
168 169
170 171
171 172
172 173
173 174
174 175
175 176
176 177
177 178
178 179
179 180
